c --- [ banner ] -------------------------------------------------------------
c 
c CaDiCaL Radically Simplified CDCL SAT Solver
c Copyright (c) 2016-2021 A. Biere, M. Fleury, N. Froleyks
c 
c Version 1.5.2 a5f15211db36c3956764e18194dd5bd63bf3b5e6
c g++ (GCC) 9.3.0 -Wall -Wextra -O3 -DNDEBUG
c Fri Oct 21 01:27:37 EDT 2022 Linux gra-login3 3.10.0-1160.66.1.el7.x86_64 x86_64
c 
c --- [ limit ] --------------------------------------------------------------
c 
c setting conflict limit to 200000 conflicts (due to '200000')
c 
c --- [ parsing input ] ------------------------------------------------------
c 
c reading DIMACS file from '33.cubes1385.adj'
c opening file to read '33.cubes1385.adj'
c found 'p cnf 6160 1595476' header
c parsed 1595476 clauses in 19.17 seconds process time
c closing file '33.cubes1385.adj'
c after reading 1457566779 bytes 1390.0 MB
c 
c --- [ options ] ------------------------------------------------------------
c 
c all options are set to their default value
c 
c --- [ solving ] ------------------------------------------------------------
c 
c time measured in process time since initialization
c 
c  seconds    reductions  redundant   irredundant
c          MB     restarts       trail       variables
c            level   conflicts       glue         remaining
c 
c * 19.17 1367  0 0   0    0    0  0% 0 1595422 2371 38%
c { 20.93 1443  0 0   0    0    0  0% 0 1595422 2371 38%
c i 21.12 1447 911 0   0   22   13 32% 1 1595422 2361 38%
c i 22.16 1463 917 0   2   42   29 38% 5 1595422 2357 38%
c i 23.49 1475 413 0  14   93   71 30% 16 1595422 2356 38%
c i 24.05 1477 367 0  17  106   83 30% 21 1595422 2355 38%
c i 24.28 1477 338 0  20  115   91 30% 21 1595422 2354 38%
c i 24.39 1478 321 0  22  124   99 30% 22 1595422 2350 38%
c i 24.68 1480 283 0  27  141  114 30% 21 1595422 2344 38%
c i 24.71 1480 269 0  28  148  119 30% 21 1595422 2343 38%
c i 24.73 1480 261 0  28  152  122 30% 21 1595422 2342 38%
c i 24.79 1480 246 0  29  162  129 30% 21 1595422 2341 38%
c i 24.83 1480 235 0  29  170  136 30% 21 1595422 2340 38%
c i 24.87 1480 230 0  29  174  139 30% 21 1595422 2339 38%
c i 24.93 1480 213 0  29  190  152 30% 21 1595422 2338 38%
c i 25.06 1480 201 0  31  203  161 30% 21 1595422 2337 38%
c i 25.17 1481 192 0  32  218  174 30% 22 1595422 2336 38%
c i 25.18 1481 191 0  33  219  174 30% 22 1595422 2335 38%
c i 25.21 1481 187 0  34  224  178 30% 22 1595422 2334 38%
c i 25.22 1481 186 0  35  225  178 30% 22 1595422 2333 38%
c 
c  seconds     reductions  redundant    irredundant
c          MB      restarts       trail        variables
c             level   conflicts       glue          remaining
c 
c i 25.22 1481 185 0  35  226  178 30% 22 1595422 2332 38%
c i 25.24 1481 181 0  35  232  183 30% 22 1595422 2331 38%
c i 25.40 1482 177 0  37  240  190 30% 23 1595422 2323 38%
c i 25.80 1483 165 0  43  262  209 29% 23 1595422 2322 38%
c i 25.93 1483 162 0  44  269  214 29% 23 1595422 2321 38%
c i 25.97 1483 161 0  45  272  216 29% 23 1595422 2320 38%
c i 26.09 1483 157 0  47  288  224 29% 23 1595422 2319 38%
c i 26.22 1484 154 0  49  294  229 29% 23 1595422 2318 38%
c - 30.32 1455 152 1  50  300  235 29% 23 242487 2318 38%
c i 30.47 1410 146 1  50  314  248 29% 23 242487 2317 38%
c i 30.47 1410 145 1  50  316  248 29% 23 242487 2316 38%
c i 30.53 1410 135 1  50  343  265 29% 23 242487 2315 38%
c i 30.61 1369 121 1  50  393  311 30% 23 242487 2314 38%
c i 30.62 1369 120 1  50  394  311 30% 23 242487 2313 38%
c i 30.63 1369 119 1  50  400  314 30% 23 242487 2312 38%
c i 30.69 1369 111 1  51  437  338 30% 23 242487 2311 38%
c i 30.74 1369 100 1  51  509  400 30% 23 242487 2310 38%
c i 30.74 1369 99 1  51  512  401 30% 23 242487 2309 37%
c i 30.75 1369 96 1  51  531  415 30% 23 242487 2308 37%
c i 30.76 1369 96 1  51  536  418 30% 23 242487 2307 37%
c 
c  seconds    reductions  redundant   irredundant
c          MB     restarts       trail       variables
c            level   conflicts       glue         remaining
c 
c i 30.80 1369 92 1  51  569  444 30% 23 242487 2306 37%
c i 31.08 1369 87 1  52  638  506 30% 23 242487 2305 37%
c i 31.13 1369 84 1  52  683  539 30% 23 242487 2304 37%
c i 31.15 1369 81 1  53  722  570 30% 23 242487 2303 37%
c i 31.15 1369 81 1  53  723  570 30% 23 242487 2302 37%
c i 31.15 1369 81 1  53  724  570 30% 23 242487 2301 37%
c i 31.30 1369 79 1  65  781  619 29% 24 242487 2300 37%
c i 31.39 1369 78 1  72  804  639 29% 24 242487 2299 37%
c i 31.41 1369 78 1  73  811  643 29% 24 242487 2298 37%
c i 32.15 1369 77 1  91  924  745 29% 25 242487 2297 37%
c i 32.19 1369 77 1  93  930  750 29% 25 242487 2296 37%
c i 32.34 1369 78 1  99  954  771 29% 25 242487 2295 37%
c i 32.36 1369 78 1 100  956  772 29% 25 242487 2294 37%
c i 32.38 1369 79 1 100  962  775 29% 25 242487 2291 37%
c i 32.45 1369 78 1 102  975  783 29% 25 242487 2290 37%
c i 32.53 1369 78 1 102  984  791 29% 25 242487 2289 37%
c i 32.55 1369 78 1 102  986  792 29% 25 242487 2288 37%
c i 32.55 1369 77 1 102  990  795 29% 25 242487 2287 37%
c } 32.58 1369 77 1 102 1000  803 29% 25 242487 2287 37%
c [ 32.58 1369  0 1 102 1000  803  0% 0 242487 2287 37%
c 
c  seconds    reductions  redundant  irredundant
c          MB     restarts       trail      variables
c            level   conflicts       glue        remaining
c 
c O 32.60 1369 21 1 102 1005  807 24% 9 242487 2287 37%
c i 32.72 1369 12 1 102 1031  824 26% 7 242487 2286 37%
c i 32.74 1369 11 1 102 1033  824 26% 7 242487 2285 37%
c i 32.75 1369 11 1 102 1041  831 27% 7 242487 2284 37%
c i 32.75 1369 10 1 102 1042  831 27% 7 242487 2283 37%
c i 32.75 1369 10 1 102 1043  831 27% 7 242487 2282 37%
c i 32.75 1369 10 1 102 1045  832 27% 7 242487 2281 37%
c i 32.75 1369 10 1 102 1047  833 27% 7 242487 2280 37%
c i 32.76 1369 11 1 102 1051  836 27% 7 242487 2279 37%
c i 32.76 1369 11 1 102 1052  836 27% 7 242487 2278 37%
c i 32.77 1369 11 1 102 1057  840 28% 7 242487 2277 37%
c i 32.77 1369 11 1 102 1059  840 28% 7 242487 2276 37%
c i 32.79 1369 12 1 102 1074  853 29% 8 242487 2275 37%
c i 32.83 1369 15 1 102 1103  879 29% 11 242487 2274 37%
c - 33.29 1469 18 2 102 1133  789 30% 12 242360 2274 37%
c i 33.36 1469 19 2 102 1174  813 30% 14 242360 2273 37%
c i 33.37 1469 20 2 102 1187  825 30% 14 242360 2272 37%
c i 33.38 1469 20 2 102 1194  830 30% 14 242360 2271 37%
c i 33.39 1469 21 2 102 1212  841 30% 15 242360 2270 37%
c i 33.41 1469 22 2 102 1244  864 30% 16 242360 2269 37%
c 
c  seconds    reductions  redundant   irredundant
c          MB     restarts       trail       variables
c            level   conflicts       glue         remaining
c 
c i 33.44 1469 25 2 102 1332  921 30% 19 242360 2268 37%
c i 33.44 1469 25 2 102 1333  921 30% 19 242360 2267 37%
c i 33.44 1469 25 2 102 1334  921 30% 19 242360 2266 37%
c i 33.44 1469 25 2 102 1335  921 30% 19 242360 2265 37%
c i 33.44 1469 25 2 102 1354  938 30% 19 242360 2264 37%
c i 33.45 1469 25 2 102 1374  954 30% 19 242360 2263 37%
c i 33.45 1469 25 2 102 1384  962 30% 19 242360 2262 37%
c i 33.51 1469 26 2 102 1502 1049 30% 20 242360 2261 37%
c i 33.51 1469 25 2 102 1508 1053 30% 20 242360 2260 37%
c i 33.52 1469 25 2 102 1532 1070 30% 19 242360 2259 37%
c i 33.54 1469 24 2 102 1607 1117 31% 19 242360 2258 37%
c i 33.54 1469 24 2 102 1608 1117 31% 19 242360 2257 37%
c i 33.80 1469 21 2 103 2326 1615 31% 17 242360 2256 37%
c - 34.12 1467 21 3 103 2379 1249 31% 17 242306 2256 37%
c i 34.47 1466 20 3 103 2781 1537 54% 17 242306 2255 37%
c ] 34.60 1466 21 3 103 3001 1694 52% 17 242306 2255 37%
c { 34.61 1466 77 3 103 3001 1694 78% 25 242306 2255 37%
c F 34.62 1466 77 3 103 3007 1700 78% 25 242306 2255 37%
c i 34.82 1466 67 3 103 3211 1865 73% 23 242306 2254 37%
c i 34.86 1466 66 3 103 3261 1908 72% 23 242306 2253 37%
c 
c  seconds    reductions  redundant   irredundant
c          MB     restarts       trail       variables
c            level   conflicts       glue         remaining
c 
c - 35.70 1370 54 4 155 4043 1812 63% 23 242298 2253 37%
c i 36.12 1370 45 4 155 4764 2296 59% 21 242298 2252 37%
c 2 36.95 1370 43 4 164 5000 3580 58% 21 242268 2242 36%
c p 40.33 1370 43 4 164 5000 7152 58% 21 242268 2166 35%
c d 40.67 1370 43 4 164 5000 6757 58% 21 190992 2161 35%
c # 41.73 1370 39 4 200 6008 7513 56% 20 190992 2161 35%
c - 42.31 1340 40 5 212 6123 2522 55% 20 190992 2161 35%
c } 43.38 1340 38 5 249 7001 3212 54% 20 190992 2161 35%
c [ 43.38 1340 21 5 249 7001 3212 52% 17 190992 2161 35%
c - 44.15 1340 19 6 250 8429 2721 51% 16 190992 2161 35%
c I 44.99 1340 20 6 251 10010 3684 51% 16 190992 2161 35%
c - 46.10 1340 25 7 252 11120 3273 50% 19 190992 2161 35%
c - 47.70 1340 33 8 254 14194 3736 50% 26 190992 2161 35%
c ] 48.05 1340 34 8 254 15001 4325 50% 27 190992 2161 35%
c { 48.05 1340 38 8 254 15001 4325 54% 20 190992 2161 35%
c 3 48.07 1340 38 8 254 15001 5545 54% 20 190989 2161 35%
c 2 48.11 1340 38 8 254 15001 5668 54% 20 190984 2161 35%
c p 49.04 1340 38 8 254 15001 8913 54% 20 190984 2161 35%
c B 49.17 1340 38 8 254 15012 8922 54% 20 190984 2161 35%
c } 50.36 1340 32 8 267 17212 10383 53% 19 190984 2161 35%
c 
c  seconds    reductions    redundant   irredundant
c          MB     restarts         trail       variables
c            level    conflicts        glue         remaining
c 
c 1 50.36 1340 32 8 267 17212 10383 53% 19 190984 2161 35%
c 
c --- [ writing output ] -----------------------------------------------------
c 
c writing simplified CNF to DIMACS file 'simp/33.cubes1385.adj.simp1'
c * 50.36 1340 32 8 267 17212 10383 53% 19 190984 2161 35%
c opening file to write 'simp/33.cubes1385.adj.simp1'
c writing 'p cnf 6160 190984' header
c closing file 'simp/33.cubes1385.adj.simp1'
c after writing 79752935 bytes 76.1 MB
c wrote 190984 clauses in 0.57 seconds process time
c 
c --- [ writing extension ] --------------------------------------------------
c 
c writing extension stack to 'simp/33.cubes1385.adj.ext1'
c opening file to write 'simp/33.cubes1385.adj.ext1'
c closing file 'simp/33.cubes1385.adj.ext1'
c after writing 13029 bytes 0.0 MB
c wrote 870 witnesses in 0.00 seconds process time
c 
c --- [ result ] -------------------------------------------------------------
c 
s SATISFIABLE
c 
c --- [ run-time profiling ] -------------------------------------------------
c 
c process time taken by individual solving procedures
c (percentage relative to process time for solving)
c 
c        26.02   83.43% search
c        19.17   61.48% parse
c        17.57   56.35% unstable
c         6.69   21.45% stable
c         5.17   16.57% simplify
c         4.31   13.83% probe
c         1.75    5.62% lucky
c         0.07    0.23% ternary
c   =================================
c        31.19   61.23% solve
c 
c last line shows process time for solving
c (percentage relative to total process time)
c 
c --- [ statistics ] ---------------------------------------------------------
c 
c chronological:              3496        20.31 %  of conflicts
c conflicts:                 17212       551.92    per second
c decisions:                 44120      1414.75    per second
c fixed:                       840        13.64 %  of all variables
c learned:                   16780        97.49 %  per conflict
c learned_lits:            2988895       100.00 %  learned literals
c minimized:                     0         0.00 %  learned literals
c shrunken:                1776896        59.45 %  learned literals
c minishrunken:             244724         8.19 %  learned literals
c propagations:            2487928         0.08 M  per second
c reduced:                    6217        36.12 %  per conflict
c rephased:                      5      3442.40    interval
c restarts:                    267        64.46    interval
c stabilizing:                   2        58.10 %  of conflicts
c substituted:                  15         0.24 %  of all variables
c subsumed:                   4734         0.14 %  of all clauses
c ternary:                    2463         0.67 %  of resolved
c weakened:                     30         2.00    average size
c 
c seconds are measured in process time for solving
c 
c --- [ resources ] ----------------------------------------------------------
c 
c total process time since initialization:        50.94    seconds
c total real time since initialization:           51.46    seconds
c maximum resident set size of process:         1566.94    MB
c 
c --- [ shutting down ] ------------------------------------------------------
c 
c exit 10
WARNING! DIMACS header mismatch: wrong number of variables.
============================[ Problem Statistics ]=============================
|                                                                             |
|  Number of variables:          6120                                         |
|  Number of clauses:          190988                                         |
|  Parse time:                   1.06 s                                       |
|  Simplification time:          0.04 s                                       |
|                                                                             |
============================[ Search Statistics ]====================================================
| Conflicts |          ORIGINAL         |          LEARNT          | Num Sols |      SUBGRAPHS      |
|           |    Vars  Clauses Literals |    Limit  Clauses Lit/Cl |          | Canonical Noncanon. |
=====================================================================================================
|       202 |    6026   191090 17235883 |     2000      202     35 |        0 |        59       102 |
|       539 |    6026   191277 17238865 |     2000      539     21 |        0 |       112       289 |
|      1546 |    6026   192059 17251118 |     2000     1546     17 |        0 |       320      1071 |
|      3014 |    6026   193190 17268630 |     3604     2018     13 |        0 |       743      2202 |
|      4448 |    6026   194118 17282340 |     3604     3452     16 |        0 |      1004      3130 |
|      9819 |    6026   198730 17343625 |     6303     4522     11 |        0 |      1884      7742 |
|     16178 |    6026   203950 17411499 |     8782     3960     12 |        0 |      2786     12962 |
|     23675 |    6013   209738 17480509 |     9991     7066     10 |        0 |      3573     18751 |
=====================================================================================================
Number of solutions   : 0
Canonical subgraphs   : 4583           (56 /sec)
          order  3    : 1              (100000 /sec)
          order  4    : 1              (250000 /sec)
          order  5    : 1              (125000 /sec)
          order  6    : 1              (29412 /sec)
          order  7    : 1              (4739 /sec)
          order  8    : 2              (898 /sec)
          order  9    : 7              (334 /sec)
          order 10    : 31             (163 /sec)
          order 11    : 128            (119 /sec)
          order 12    : 513            (84 /sec)
          order 13    : 2075           (61 /sec)
          order 14    : 1612           (54 /sec)
          order 15    : 155            (23 /sec)
          order 16    : 32             (14 /sec)
          order 17    : 9              (17 /sec)
          order 18    : 13             (15 /sec)
          order 19    : 1              (16 /sec)
          order 20    : 0              (-nan /sec)
          order 21    : 0              (-nan /sec)
          order 22    : 0              (-nan /sec)
Noncanonical subgraphs: 26535          (430 /sec)
          order  3    : 0              (-nan /sec)
          order  4    : 0              (-nan /sec)
          order  5    : 0              (-nan /sec)
          order  6    : 0              (-nan /sec)
          order  7    : 0              (-nan /sec)
          order  8    : 0              (-nan /sec)
          order  9    : 0              (-nan /sec)
          order 10    : 0              (-nan /sec)
          order 11    : 0              (-nan /sec)
          order 12    : 0              (-nan /sec)
          order 13    : 6642           (3576 /sec)
          order 14    : 2546           (3362 /sec)
          order 15    : 17057          (298 /sec)
          order 16    : 263            (173 /sec)
          order 17    : 27             (107 /sec)
          order 18    : 0              (-nan /sec)
          order 19    : 0              (-nan /sec)
          order 20    : 0              (-nan /sec)
          order 21    : 0              (-nan /sec)
Canonicity checking   : 81.6502 s
Noncanonicity checking: 61.6621 s
Total canonicity time : 143.312 s
database reductions   : 8
restarts              : 124
conflicts             : 32962          (221 /sec)
decisions             : 74205          (0.00 % random) (497 /sec)
propagations          : 3483235        (23318 /sec)
conflict literals     : 498697         (63.79 % deleted)
actual reward         : 0.045319
Memory used           : 96.00 MB
CPU time              : 149.379 s

UNSATISFIABLE
